*<meta creator='lp_solve v5.5'>
*<meta rows=2>
*<meta columns=3>
*<meta equalities=0>
*<meta integers=0>
*<meta origsense='MIN'>
*
NAME                  
ROWS
 N  R0      
 G  R1      
 L  R2      
COLUMNS
    C1        R0        1.0000000000   R1        1.0000000000
    C1        R2        3.0000000000
    C2        R0        9.0000000000   R1        2.0000000000
    C2        R2        2.0000000000
    C3        R0        3.0000000000   R1        3.0000000000
    C3        R2        2.0000000000
RHS
    RHS       R1        1.0000000000   R2        15.000000000
ENDATA
